;; Preprocessed for Astral solver
(set-info :status unsat)
;; variables
(declare-const x0 Loc)
(declare-const x1 Loc)
(declare-const x2 Loc)
(declare-const x3 Loc)
(declare-const x4 Loc)

(assert 
		(sep 
			(= nil nil)
			emp
		)

)

(assert (not 
			emp
))

(check-sat)
